p cnf 420 1426
c p weight 168 -1 0
c p weight -168 1 0
c p weight 170 6.12323399573676603586882014729198302312846062338790031898128063403419218957424163818359375E-17 0
c p weight -170 1 0
c p weight 171 1 0
c p weight -171 1 0
c p weight 172 -1 0
c p weight -172 1 0
c p weight 174 -1 0
c p weight -174 1 0
c p weight 177 -1 0
c p weight -177 1 0
c p weight 180 -1 0
c p weight -180 1 0
c p weight 183 -1 0
c p weight -183 1 0
c p weight 186 -1 0
c p weight -186 1 0
c p weight 189 -1 0
c p weight -189 1 0
c p weight 192 -1 0
c p weight -192 1 0
c p weight 195 -1 0
c p weight -195 1 0
c p weight 198 -1 0
c p weight -198 1 0
c p weight 201 -1 0
c p weight -201 1 0
c p weight 204 -1 0
c p weight -204 1 0
c p weight 207 -1 0
c p weight -207 1 0
c p weight 210 -1 0
c p weight -210 1 0
c p weight 213 -1 0
c p weight -213 1 0
c p weight 216 -1 0
c p weight -216 1 0
c p weight 219 -1 0
c p weight -219 1 0
c p weight 222 -1 0
c p weight -222 1 0
c p weight 225 -1 0
c p weight -225 1 0
c p weight 228 -1 0
c p weight -228 1 0
c p weight 231 -1 0
c p weight -231 1 0
c p weight 234 -1 0
c p weight -234 1 0
c p weight 237 -1 0
c p weight -237 1 0
c p weight 240 -1 0
c p weight -240 1 0
c p weight 243 -1 0
c p weight -243 1 0
c p weight 246 -1 0
c p weight -246 1 0
c p weight 249 -1 0
c p weight -249 1 0
c p weight 252 -1 0
c p weight -252 1 0
c p weight 255 -1 0
c p weight -255 1 0
c p weight 258 -1 0
c p weight -258 1 0
c p weight 261 -1 0
c p weight -261 1 0
c p weight 264 -1 0
c p weight -264 1 0
c p weight 267 -1 0
c p weight -267 1 0
c p weight 270 -1 0
c p weight -270 1 0
c p weight 273 -1 0
c p weight -273 1 0
c p weight 276 -1 0
c p weight -276 1 0
c p weight 279 -1 0
c p weight -279 1 0
c p weight 282 -1 0
c p weight -282 1 0
c p weight 285 -1 0
c p weight -285 1 0
c p weight 288 -1 0
c p weight -288 1 0
c p weight 291 -1 0
c p weight -291 1 0
c p weight 294 -1 0
c p weight -294 1 0
c p weight 297 -1 0
c p weight -297 1 0
c p weight 300 -1 0
c p weight -300 1 0
c p weight 303 -1 0
c p weight -303 1 0
c p weight 306 -1 0
c p weight -306 1 0
c p weight 309 -1 0
c p weight -309 1 0
c p weight 312 -1 0
c p weight -312 1 0
c p weight 315 -1 0
c p weight -315 1 0
c p weight 318 -1 0
c p weight -318 1 0
c p weight 321 -1 0
c p weight -321 1 0
c p weight 324 -1 0
c p weight -324 1 0
c p weight 327 -1 0
c p weight -327 1 0
c p weight 330 -1 0
c p weight -330 1 0
c p weight 333 -1 0
c p weight -333 1 0
c p weight 336 -1 0
c p weight -336 1 0
c p weight 339 -1 0
c p weight -339 1 0
c p weight 342 -1 0
c p weight -342 1 0
c p weight 345 -1 0
c p weight -345 1 0
c p weight 348 -1 0
c p weight -348 1 0
c p weight 351 -1 0
c p weight -351 1 0
c p weight 354 -1 0
c p weight -354 1 0
c p weight 357 -1 0
c p weight -357 1 0
c p weight 360 -1 0
c p weight -360 1 0
c p weight 363 -1 0
c p weight -363 1 0
c p weight 366 -1 0
c p weight -366 1 0
c p weight 369 -1 0
c p weight -369 1 0
c p weight 372 -1 0
c p weight -372 1 0
c p weight 375 -1 0
c p weight -375 1 0
c p weight 378 -1 0
c p weight -378 1 0
c p weight 381 -1 0
c p weight -381 1 0
c p weight 384 -1 0
c p weight -384 1 0
c p weight 387 -1 0
c p weight -387 1 0
c p weight 390 -1 0
c p weight -390 1 0
c p weight 393 -1 0
c p weight -393 1 0
c p weight 396 -1 0
c p weight -396 1 0
c p weight 399 -1 0
c p weight -399 1 0
c p weight 402 -1 0
c p weight -402 1 0
c p weight 405 -1 0
c p weight -405 1 0
c p weight 408 -1 0
c p weight -408 1 0
c p weight 411 -1 0
c p weight -411 1 0
c p weight 414 -1 0
c p weight -414 1 0
c p weight 417 -1 0
c p weight -417 1 0
c p weight 420 -1 0
c p weight -420 1 0
-165 0
-163 0
-161 0
-159 0
-157 0
-155 0
-153 0
-151 0
-149 0
-147 0
-145 0
-143 0
-141 0
-139 0
-137 0
-135 0
-133 0
-131 0
-129 0
-127 0
-125 0
-123 0
-121 0
-119 0
-117 0
-115 0
-113 0
-111 0
-109 0
-107 0
-105 0
-103 0
-101 0
-99 0
-97 0
-95 0
-93 0
-91 0
-89 0
-87 0
-85 0
-83 0
-81 0
-79 0
-77 0
-75 0
-73 0
-71 0
-69 0
-67 0
-65 0
-63 0
-61 0
-59 0
-57 0
-55 0
-53 0
-51 0
-49 0
-47 0
-45 0
-43 0
-41 0
-39 0
-37 0
-35 0
-33 0
-31 0
-29 0
-27 0
-25 0
-23 0
-21 0
-19 0
-17 0
-15 0
-13 0
-11 0
-9 0
-7 0
-5 0
-3 0
-1 0
167 165 -166 0
167 -165 166 0
-167 165 166 0
-167 -165 -166 0
-168 165 0
-168 166 0
168 -165 -166 0
169 -165 167 0
-169 165 167 0
-170 167 0
169 -170 -165 0
-169 -170 165 0
169 170 165 -167 0
-169 170 -165 -167 0
-171 167 0
169 -171 165 0
-169 -171 -165 0
169 171 -165 -167 0
-169 171 165 -167 0
-172 169 0
-172 167 0
-172 -165 0
172 -169 165 -167 0
173 169 -167 0
173 -169 167 0
-173 169 167 0
-173 -169 -167 0
-174 169 0
-174 167 0
174 -169 -167 0
175 169 -163 0
175 -169 163 0
-175 169 163 0
-175 -169 -163 0
176 173 -164 0
176 -173 164 0
-176 173 164 0
-176 -173 -164 0
-177 169 0
-177 164 0
-177 163 -173 0
-177 -163 173 0
177 -169 163 173 -164 0
177 -169 -163 -173 -164 0
178 175 -161 0
178 -175 161 0
-178 175 161 0
-178 -175 -161 0
179 164 -162 0
179 -164 162 0
-179 164 162 0
-179 -164 -162 0
-180 175 0
-180 162 0
-180 161 -164 0
-180 -161 164 0
180 -175 161 164 -162 0
180 -175 -161 -164 -162 0
181 178 -159 0
181 -178 159 0
-181 178 159 0
-181 -178 -159 0
182 162 -160 0
182 -162 160 0
-182 162 160 0
-182 -162 -160 0
-183 178 0
-183 160 0
-183 159 -162 0
-183 -159 162 0
183 -178 159 162 -160 0
183 -178 -159 -162 -160 0
184 181 -157 0
184 -181 157 0
-184 181 157 0
-184 -181 -157 0
185 160 -158 0
185 -160 158 0
-185 160 158 0
-185 -160 -158 0
-186 181 0
-186 158 0
-186 157 -160 0
-186 -157 160 0
186 -181 157 160 -158 0
186 -181 -157 -160 -158 0
187 184 -155 0
187 -184 155 0
-187 184 155 0
-187 -184 -155 0
188 158 -156 0
188 -158 156 0
-188 158 156 0
-188 -158 -156 0
-189 184 0
-189 156 0
-189 155 -158 0
-189 -155 158 0
189 -184 155 158 -156 0
189 -184 -155 -158 -156 0
190 187 -153 0
190 -187 153 0
-190 187 153 0
-190 -187 -153 0
191 156 -154 0
191 -156 154 0
-191 156 154 0
-191 -156 -154 0
-192 187 0
-192 154 0
-192 153 -156 0
-192 -153 156 0
192 -187 153 156 -154 0
192 -187 -153 -156 -154 0
193 190 -151 0
193 -190 151 0
-193 190 151 0
-193 -190 -151 0
194 154 -152 0
194 -154 152 0
-194 154 152 0
-194 -154 -152 0
-195 190 0
-195 152 0
-195 151 -154 0
-195 -151 154 0
195 -190 151 154 -152 0
195 -190 -151 -154 -152 0
196 193 -149 0
196 -193 149 0
-196 193 149 0
-196 -193 -149 0
197 152 -150 0
197 -152 150 0
-197 152 150 0
-197 -152 -150 0
-198 193 0
-198 150 0
-198 149 -152 0
-198 -149 152 0
198 -193 149 152 -150 0
198 -193 -149 -152 -150 0
199 196 -147 0
199 -196 147 0
-199 196 147 0
-199 -196 -147 0
200 150 -148 0
200 -150 148 0
-200 150 148 0
-200 -150 -148 0
-201 196 0
-201 148 0
-201 147 -150 0
-201 -147 150 0
201 -196 147 150 -148 0
201 -196 -147 -150 -148 0
202 199 -145 0
202 -199 145 0
-202 199 145 0
-202 -199 -145 0
203 148 -146 0
203 -148 146 0
-203 148 146 0
-203 -148 -146 0
-204 199 0
-204 146 0
-204 145 -148 0
-204 -145 148 0
204 -199 145 148 -146 0
204 -199 -145 -148 -146 0
205 202 -143 0
205 -202 143 0
-205 202 143 0
-205 -202 -143 0
206 146 -144 0
206 -146 144 0
-206 146 144 0
-206 -146 -144 0
-207 202 0
-207 144 0
-207 143 -146 0
-207 -143 146 0
207 -202 143 146 -144 0
207 -202 -143 -146 -144 0
208 205 -141 0
208 -205 141 0
-208 205 141 0
-208 -205 -141 0
209 144 -142 0
209 -144 142 0
-209 144 142 0
-209 -144 -142 0
-210 205 0
-210 142 0
-210 141 -144 0
-210 -141 144 0
210 -205 141 144 -142 0
210 -205 -141 -144 -142 0
211 208 -139 0
211 -208 139 0
-211 208 139 0
-211 -208 -139 0
212 142 -140 0
212 -142 140 0
-212 142 140 0
-212 -142 -140 0
-213 208 0
-213 140 0
-213 139 -142 0
-213 -139 142 0
213 -208 139 142 -140 0
213 -208 -139 -142 -140 0
214 211 -137 0
214 -211 137 0
-214 211 137 0
-214 -211 -137 0
215 140 -138 0
215 -140 138 0
-215 140 138 0
-215 -140 -138 0
-216 211 0
-216 138 0
-216 137 -140 0
-216 -137 140 0
216 -211 137 140 -138 0
216 -211 -137 -140 -138 0
217 214 -135 0
217 -214 135 0
-217 214 135 0
-217 -214 -135 0
218 138 -136 0
218 -138 136 0
-218 138 136 0
-218 -138 -136 0
-219 214 0
-219 136 0
-219 135 -138 0
-219 -135 138 0
219 -214 135 138 -136 0
219 -214 -135 -138 -136 0
220 217 -133 0
220 -217 133 0
-220 217 133 0
-220 -217 -133 0
221 136 -134 0
221 -136 134 0
-221 136 134 0
-221 -136 -134 0
-222 217 0
-222 134 0
-222 133 -136 0
-222 -133 136 0
222 -217 133 136 -134 0
222 -217 -133 -136 -134 0
223 220 -131 0
223 -220 131 0
-223 220 131 0
-223 -220 -131 0
224 134 -132 0
224 -134 132 0
-224 134 132 0
-224 -134 -132 0
-225 220 0
-225 132 0
-225 131 -134 0
-225 -131 134 0
225 -220 131 134 -132 0
225 -220 -131 -134 -132 0
226 223 -129 0
226 -223 129 0
-226 223 129 0
-226 -223 -129 0
227 132 -130 0
227 -132 130 0
-227 132 130 0
-227 -132 -130 0
-228 223 0
-228 130 0
-228 129 -132 0
-228 -129 132 0
228 -223 129 132 -130 0
228 -223 -129 -132 -130 0
229 226 -127 0
229 -226 127 0
-229 226 127 0
-229 -226 -127 0
230 130 -128 0
230 -130 128 0
-230 130 128 0
-230 -130 -128 0
-231 226 0
-231 128 0
-231 127 -130 0
-231 -127 130 0
231 -226 127 130 -128 0
231 -226 -127 -130 -128 0
232 229 -125 0
232 -229 125 0
-232 229 125 0
-232 -229 -125 0
233 128 -126 0
233 -128 126 0
-233 128 126 0
-233 -128 -126 0
-234 229 0
-234 126 0
-234 125 -128 0
-234 -125 128 0
234 -229 125 128 -126 0
234 -229 -125 -128 -126 0
235 232 -123 0
235 -232 123 0
-235 232 123 0
-235 -232 -123 0
236 126 -124 0
236 -126 124 0
-236 126 124 0
-236 -126 -124 0
-237 232 0
-237 124 0
-237 123 -126 0
-237 -123 126 0
237 -232 123 126 -124 0
237 -232 -123 -126 -124 0
238 235 -121 0
238 -235 121 0
-238 235 121 0
-238 -235 -121 0
239 124 -122 0
239 -124 122 0
-239 124 122 0
-239 -124 -122 0
-240 235 0
-240 122 0
-240 121 -124 0
-240 -121 124 0
240 -235 121 124 -122 0
240 -235 -121 -124 -122 0
241 238 -119 0
241 -238 119 0
-241 238 119 0
-241 -238 -119 0
242 122 -120 0
242 -122 120 0
-242 122 120 0
-242 -122 -120 0
-243 238 0
-243 120 0
-243 119 -122 0
-243 -119 122 0
243 -238 119 122 -120 0
243 -238 -119 -122 -120 0
244 241 -117 0
244 -241 117 0
-244 241 117 0
-244 -241 -117 0
245 120 -118 0
245 -120 118 0
-245 120 118 0
-245 -120 -118 0
-246 241 0
-246 118 0
-246 117 -120 0
-246 -117 120 0
246 -241 117 120 -118 0
246 -241 -117 -120 -118 0
247 244 -115 0
247 -244 115 0
-247 244 115 0
-247 -244 -115 0
248 118 -116 0
248 -118 116 0
-248 118 116 0
-248 -118 -116 0
-249 244 0
-249 116 0
-249 115 -118 0
-249 -115 118 0
249 -244 115 118 -116 0
249 -244 -115 -118 -116 0
250 247 -113 0
250 -247 113 0
-250 247 113 0
-250 -247 -113 0
251 116 -114 0
251 -116 114 0
-251 116 114 0
-251 -116 -114 0
-252 247 0
-252 114 0
-252 113 -116 0
-252 -113 116 0
252 -247 113 116 -114 0
252 -247 -113 -116 -114 0
253 250 -111 0
253 -250 111 0
-253 250 111 0
-253 -250 -111 0
254 114 -112 0
254 -114 112 0
-254 114 112 0
-254 -114 -112 0
-255 250 0
-255 112 0
-255 111 -114 0
-255 -111 114 0
255 -250 111 114 -112 0
255 -250 -111 -114 -112 0
256 253 -109 0
256 -253 109 0
-256 253 109 0
-256 -253 -109 0
257 112 -110 0
257 -112 110 0
-257 112 110 0
-257 -112 -110 0
-258 253 0
-258 110 0
-258 109 -112 0
-258 -109 112 0
258 -253 109 112 -110 0
258 -253 -109 -112 -110 0
259 256 -107 0
259 -256 107 0
-259 256 107 0
-259 -256 -107 0
260 110 -108 0
260 -110 108 0
-260 110 108 0
-260 -110 -108 0
-261 256 0
-261 108 0
-261 107 -110 0
-261 -107 110 0
261 -256 107 110 -108 0
261 -256 -107 -110 -108 0
262 259 -105 0
262 -259 105 0
-262 259 105 0
-262 -259 -105 0
263 108 -106 0
263 -108 106 0
-263 108 106 0
-263 -108 -106 0
-264 259 0
-264 106 0
-264 105 -108 0
-264 -105 108 0
264 -259 105 108 -106 0
264 -259 -105 -108 -106 0
265 262 -103 0
265 -262 103 0
-265 262 103 0
-265 -262 -103 0
266 106 -104 0
266 -106 104 0
-266 106 104 0
-266 -106 -104 0
-267 262 0
-267 104 0
-267 103 -106 0
-267 -103 106 0
267 -262 103 106 -104 0
267 -262 -103 -106 -104 0
268 265 -101 0
268 -265 101 0
-268 265 101 0
-268 -265 -101 0
269 104 -102 0
269 -104 102 0
-269 104 102 0
-269 -104 -102 0
-270 265 0
-270 102 0
-270 101 -104 0
-270 -101 104 0
270 -265 101 104 -102 0
270 -265 -101 -104 -102 0
271 268 -99 0
271 -268 99 0
-271 268 99 0
-271 -268 -99 0
272 102 -100 0
272 -102 100 0
-272 102 100 0
-272 -102 -100 0
-273 268 0
-273 100 0
-273 99 -102 0
-273 -99 102 0
273 -268 99 102 -100 0
273 -268 -99 -102 -100 0
274 271 -97 0
274 -271 97 0
-274 271 97 0
-274 -271 -97 0
275 100 -98 0
275 -100 98 0
-275 100 98 0
-275 -100 -98 0
-276 271 0
-276 98 0
-276 97 -100 0
-276 -97 100 0
276 -271 97 100 -98 0
276 -271 -97 -100 -98 0
277 274 -95 0
277 -274 95 0
-277 274 95 0
-277 -274 -95 0
278 98 -96 0
278 -98 96 0
-278 98 96 0
-278 -98 -96 0
-279 274 0
-279 96 0
-279 95 -98 0
-279 -95 98 0
279 -274 95 98 -96 0
279 -274 -95 -98 -96 0
280 277 -93 0
280 -277 93 0
-280 277 93 0
-280 -277 -93 0
281 96 -94 0
281 -96 94 0
-281 96 94 0
-281 -96 -94 0
-282 277 0
-282 94 0
-282 93 -96 0
-282 -93 96 0
282 -277 93 96 -94 0
282 -277 -93 -96 -94 0
283 280 -91 0
283 -280 91 0
-283 280 91 0
-283 -280 -91 0
284 94 -92 0
284 -94 92 0
-284 94 92 0
-284 -94 -92 0
-285 280 0
-285 92 0
-285 91 -94 0
-285 -91 94 0
285 -280 91 94 -92 0
285 -280 -91 -94 -92 0
286 283 -89 0
286 -283 89 0
-286 283 89 0
-286 -283 -89 0
287 92 -90 0
287 -92 90 0
-287 92 90 0
-287 -92 -90 0
-288 283 0
-288 90 0
-288 89 -92 0
-288 -89 92 0
288 -283 89 92 -90 0
288 -283 -89 -92 -90 0
289 286 -87 0
289 -286 87 0
-289 286 87 0
-289 -286 -87 0
290 90 -88 0
290 -90 88 0
-290 90 88 0
-290 -90 -88 0
-291 286 0
-291 88 0
-291 87 -90 0
-291 -87 90 0
291 -286 87 90 -88 0
291 -286 -87 -90 -88 0
292 289 -85 0
292 -289 85 0
-292 289 85 0
-292 -289 -85 0
293 88 -86 0
293 -88 86 0
-293 88 86 0
-293 -88 -86 0
-294 289 0
-294 86 0
-294 85 -88 0
-294 -85 88 0
294 -289 85 88 -86 0
294 -289 -85 -88 -86 0
295 292 -83 0
295 -292 83 0
-295 292 83 0
-295 -292 -83 0
296 86 -84 0
296 -86 84 0
-296 86 84 0
-296 -86 -84 0
-297 292 0
-297 84 0
-297 83 -86 0
-297 -83 86 0
297 -292 83 86 -84 0
297 -292 -83 -86 -84 0
298 295 -81 0
298 -295 81 0
-298 295 81 0
-298 -295 -81 0
299 84 -82 0
299 -84 82 0
-299 84 82 0
-299 -84 -82 0
-300 295 0
-300 82 0
-300 81 -84 0
-300 -81 84 0
300 -295 81 84 -82 0
300 -295 -81 -84 -82 0
301 298 -79 0
301 -298 79 0
-301 298 79 0
-301 -298 -79 0
302 82 -80 0
302 -82 80 0
-302 82 80 0
-302 -82 -80 0
-303 298 0
-303 80 0
-303 79 -82 0
-303 -79 82 0
303 -298 79 82 -80 0
303 -298 -79 -82 -80 0
304 301 -77 0
304 -301 77 0
-304 301 77 0
-304 -301 -77 0
305 80 -78 0
305 -80 78 0
-305 80 78 0
-305 -80 -78 0
-306 301 0
-306 78 0
-306 77 -80 0
-306 -77 80 0
306 -301 77 80 -78 0
306 -301 -77 -80 -78 0
307 304 -75 0
307 -304 75 0
-307 304 75 0
-307 -304 -75 0
308 78 -76 0
308 -78 76 0
-308 78 76 0
-308 -78 -76 0
-309 304 0
-309 76 0
-309 75 -78 0
-309 -75 78 0
309 -304 75 78 -76 0
309 -304 -75 -78 -76 0
310 307 -73 0
310 -307 73 0
-310 307 73 0
-310 -307 -73 0
311 76 -74 0
311 -76 74 0
-311 76 74 0
-311 -76 -74 0
-312 307 0
-312 74 0
-312 73 -76 0
-312 -73 76 0
312 -307 73 76 -74 0
312 -307 -73 -76 -74 0
313 310 -71 0
313 -310 71 0
-313 310 71 0
-313 -310 -71 0
314 74 -72 0
314 -74 72 0
-314 74 72 0
-314 -74 -72 0
-315 310 0
-315 72 0
-315 71 -74 0
-315 -71 74 0
315 -310 71 74 -72 0
315 -310 -71 -74 -72 0
316 313 -69 0
316 -313 69 0
-316 313 69 0
-316 -313 -69 0
317 72 -70 0
317 -72 70 0
-317 72 70 0
-317 -72 -70 0
-318 313 0
-318 70 0
-318 69 -72 0
-318 -69 72 0
318 -313 69 72 -70 0
318 -313 -69 -72 -70 0
319 316 -67 0
319 -316 67 0
-319 316 67 0
-319 -316 -67 0
320 70 -68 0
320 -70 68 0
-320 70 68 0
-320 -70 -68 0
-321 316 0
-321 68 0
-321 67 -70 0
-321 -67 70 0
321 -316 67 70 -68 0
321 -316 -67 -70 -68 0
322 319 -65 0
322 -319 65 0
-322 319 65 0
-322 -319 -65 0
323 68 -66 0
323 -68 66 0
-323 68 66 0
-323 -68 -66 0
-324 319 0
-324 66 0
-324 65 -68 0
-324 -65 68 0
324 -319 65 68 -66 0
324 -319 -65 -68 -66 0
325 322 -63 0
325 -322 63 0
-325 322 63 0
-325 -322 -63 0
326 66 -64 0
326 -66 64 0
-326 66 64 0
-326 -66 -64 0
-327 322 0
-327 64 0
-327 63 -66 0
-327 -63 66 0
327 -322 63 66 -64 0
327 -322 -63 -66 -64 0
328 325 -61 0
328 -325 61 0
-328 325 61 0
-328 -325 -61 0
329 64 -62 0
329 -64 62 0
-329 64 62 0
-329 -64 -62 0
-330 325 0
-330 62 0
-330 61 -64 0
-330 -61 64 0
330 -325 61 64 -62 0
330 -325 -61 -64 -62 0
331 328 -59 0
331 -328 59 0
-331 328 59 0
-331 -328 -59 0
332 62 -60 0
332 -62 60 0
-332 62 60 0
-332 -62 -60 0
-333 328 0
-333 60 0
-333 59 -62 0
-333 -59 62 0
333 -328 59 62 -60 0
333 -328 -59 -62 -60 0
334 331 -57 0
334 -331 57 0
-334 331 57 0
-334 -331 -57 0
335 60 -58 0
335 -60 58 0
-335 60 58 0
-335 -60 -58 0
-336 331 0
-336 58 0
-336 57 -60 0
-336 -57 60 0
336 -331 57 60 -58 0
336 -331 -57 -60 -58 0
337 334 -55 0
337 -334 55 0
-337 334 55 0
-337 -334 -55 0
338 58 -56 0
338 -58 56 0
-338 58 56 0
-338 -58 -56 0
-339 334 0
-339 56 0
-339 55 -58 0
-339 -55 58 0
339 -334 55 58 -56 0
339 -334 -55 -58 -56 0
340 337 -53 0
340 -337 53 0
-340 337 53 0
-340 -337 -53 0
341 56 -54 0
341 -56 54 0
-341 56 54 0
-341 -56 -54 0
-342 337 0
-342 54 0
-342 53 -56 0
-342 -53 56 0
342 -337 53 56 -54 0
342 -337 -53 -56 -54 0
343 340 -51 0
343 -340 51 0
-343 340 51 0
-343 -340 -51 0
344 54 -52 0
344 -54 52 0
-344 54 52 0
-344 -54 -52 0
-345 340 0
-345 52 0
-345 51 -54 0
-345 -51 54 0
345 -340 51 54 -52 0
345 -340 -51 -54 -52 0
346 343 -49 0
346 -343 49 0
-346 343 49 0
-346 -343 -49 0
347 52 -50 0
347 -52 50 0
-347 52 50 0
-347 -52 -50 0
-348 343 0
-348 50 0
-348 49 -52 0
-348 -49 52 0
348 -343 49 52 -50 0
348 -343 -49 -52 -50 0
349 346 -47 0
349 -346 47 0
-349 346 47 0
-349 -346 -47 0
350 50 -48 0
350 -50 48 0
-350 50 48 0
-350 -50 -48 0
-351 346 0
-351 48 0
-351 47 -50 0
-351 -47 50 0
351 -346 47 50 -48 0
351 -346 -47 -50 -48 0
352 349 -45 0
352 -349 45 0
-352 349 45 0
-352 -349 -45 0
353 48 -46 0
353 -48 46 0
-353 48 46 0
-353 -48 -46 0
-354 349 0
-354 46 0
-354 45 -48 0
-354 -45 48 0
354 -349 45 48 -46 0
354 -349 -45 -48 -46 0
355 352 -43 0
355 -352 43 0
-355 352 43 0
-355 -352 -43 0
356 46 -44 0
356 -46 44 0
-356 46 44 0
-356 -46 -44 0
-357 352 0
-357 44 0
-357 43 -46 0
-357 -43 46 0
357 -352 43 46 -44 0
357 -352 -43 -46 -44 0
358 355 -41 0
358 -355 41 0
-358 355 41 0
-358 -355 -41 0
359 44 -42 0
359 -44 42 0
-359 44 42 0
-359 -44 -42 0
-360 355 0
-360 42 0
-360 41 -44 0
-360 -41 44 0
360 -355 41 44 -42 0
360 -355 -41 -44 -42 0
361 358 -39 0
361 -358 39 0
-361 358 39 0
-361 -358 -39 0
362 42 -40 0
362 -42 40 0
-362 42 40 0
-362 -42 -40 0
-363 358 0
-363 40 0
-363 39 -42 0
-363 -39 42 0
363 -358 39 42 -40 0
363 -358 -39 -42 -40 0
364 361 -37 0
364 -361 37 0
-364 361 37 0
-364 -361 -37 0
365 40 -38 0
365 -40 38 0
-365 40 38 0
-365 -40 -38 0
-366 361 0
-366 38 0
-366 37 -40 0
-366 -37 40 0
366 -361 37 40 -38 0
366 -361 -37 -40 -38 0
367 364 -35 0
367 -364 35 0
-367 364 35 0
-367 -364 -35 0
368 38 -36 0
368 -38 36 0
-368 38 36 0
-368 -38 -36 0
-369 364 0
-369 36 0
-369 35 -38 0
-369 -35 38 0
369 -364 35 38 -36 0
369 -364 -35 -38 -36 0
370 367 -33 0
370 -367 33 0
-370 367 33 0
-370 -367 -33 0
371 36 -34 0
371 -36 34 0
-371 36 34 0
-371 -36 -34 0
-372 367 0
-372 34 0
-372 33 -36 0
-372 -33 36 0
372 -367 33 36 -34 0
372 -367 -33 -36 -34 0
373 370 -31 0
373 -370 31 0
-373 370 31 0
-373 -370 -31 0
374 34 -32 0
374 -34 32 0
-374 34 32 0
-374 -34 -32 0
-375 370 0
-375 32 0
-375 31 -34 0
-375 -31 34 0
375 -370 31 34 -32 0
375 -370 -31 -34 -32 0
376 373 -29 0
376 -373 29 0
-376 373 29 0
-376 -373 -29 0
377 32 -30 0
377 -32 30 0
-377 32 30 0
-377 -32 -30 0
-378 373 0
-378 30 0
-378 29 -32 0
-378 -29 32 0
378 -373 29 32 -30 0
378 -373 -29 -32 -30 0
379 376 -27 0
379 -376 27 0
-379 376 27 0
-379 -376 -27 0
380 30 -28 0
380 -30 28 0
-380 30 28 0
-380 -30 -28 0
-381 376 0
-381 28 0
-381 27 -30 0
-381 -27 30 0
381 -376 27 30 -28 0
381 -376 -27 -30 -28 0
382 379 -25 0
382 -379 25 0
-382 379 25 0
-382 -379 -25 0
383 28 -26 0
383 -28 26 0
-383 28 26 0
-383 -28 -26 0
-384 379 0
-384 26 0
-384 25 -28 0
-384 -25 28 0
384 -379 25 28 -26 0
384 -379 -25 -28 -26 0
385 382 -23 0
385 -382 23 0
-385 382 23 0
-385 -382 -23 0
386 26 -24 0
386 -26 24 0
-386 26 24 0
-386 -26 -24 0
-387 382 0
-387 24 0
-387 23 -26 0
-387 -23 26 0
387 -382 23 26 -24 0
387 -382 -23 -26 -24 0
388 385 -21 0
388 -385 21 0
-388 385 21 0
-388 -385 -21 0
389 24 -22 0
389 -24 22 0
-389 24 22 0
-389 -24 -22 0
-390 385 0
-390 22 0
-390 21 -24 0
-390 -21 24 0
390 -385 21 24 -22 0
390 -385 -21 -24 -22 0
391 388 -19 0
391 -388 19 0
-391 388 19 0
-391 -388 -19 0
392 22 -20 0
392 -22 20 0
-392 22 20 0
-392 -22 -20 0
-393 388 0
-393 20 0
-393 19 -22 0
-393 -19 22 0
393 -388 19 22 -20 0
393 -388 -19 -22 -20 0
394 391 -17 0
394 -391 17 0
-394 391 17 0
-394 -391 -17 0
395 20 -18 0
395 -20 18 0
-395 20 18 0
-395 -20 -18 0
-396 391 0
-396 18 0
-396 17 -20 0
-396 -17 20 0
396 -391 17 20 -18 0
396 -391 -17 -20 -18 0
397 394 -15 0
397 -394 15 0
-397 394 15 0
-397 -394 -15 0
398 18 -16 0
398 -18 16 0
-398 18 16 0
-398 -18 -16 0
-399 394 0
-399 16 0
-399 15 -18 0
-399 -15 18 0
399 -394 15 18 -16 0
399 -394 -15 -18 -16 0
400 397 -13 0
400 -397 13 0
-400 397 13 0
-400 -397 -13 0
401 16 -14 0
401 -16 14 0
-401 16 14 0
-401 -16 -14 0
-402 397 0
-402 14 0
-402 13 -16 0
-402 -13 16 0
402 -397 13 16 -14 0
402 -397 -13 -16 -14 0
403 400 -11 0
403 -400 11 0
-403 400 11 0
-403 -400 -11 0
404 14 -12 0
404 -14 12 0
-404 14 12 0
-404 -14 -12 0
-405 400 0
-405 12 0
-405 11 -14 0
-405 -11 14 0
405 -400 11 14 -12 0
405 -400 -11 -14 -12 0
406 403 -9 0
406 -403 9 0
-406 403 9 0
-406 -403 -9 0
407 12 -10 0
407 -12 10 0
-407 12 10 0
-407 -12 -10 0
-408 403 0
-408 10 0
-408 9 -12 0
-408 -9 12 0
408 -403 9 12 -10 0
408 -403 -9 -12 -10 0
409 406 -7 0
409 -406 7 0
-409 406 7 0
-409 -406 -7 0
410 10 -8 0
410 -10 8 0
-410 10 8 0
-410 -10 -8 0
-411 406 0
-411 8 0
-411 7 -10 0
-411 -7 10 0
411 -406 7 10 -8 0
411 -406 -7 -10 -8 0
412 409 -5 0
412 -409 5 0
-412 409 5 0
-412 -409 -5 0
413 8 -6 0
413 -8 6 0
-413 8 6 0
-413 -8 -6 0
-414 409 0
-414 6 0
-414 5 -8 0
-414 -5 8 0
414 -409 5 8 -6 0
414 -409 -5 -8 -6 0
415 412 -3 0
415 -412 3 0
-415 412 3 0
-415 -412 -3 0
416 6 -4 0
416 -6 4 0
-416 6 4 0
-416 -6 -4 0
-417 412 0
-417 4 0
-417 3 -6 0
-417 -3 6 0
417 -412 3 6 -4 0
417 -412 -3 -6 -4 0
418 415 -1 0
418 -415 1 0
-418 415 1 0
-418 -415 -1 0
419 4 -2 0
419 -4 2 0
-419 4 2 0
-419 -4 -2 0
-420 415 0
-420 2 0
-420 1 -4 0
-420 -1 4 0
420 -415 1 4 -2 0
420 -415 -1 -4 -2 0
-418 0
-415 0
-419 0
-412 0
-416 0
-409 0
-413 0
-406 0
-410 0
-403 0
-407 0
-400 0
-404 0
-397 0
-401 0
-394 0
-398 0
-391 0
-395 0
-388 0
-392 0
-385 0
-389 0
-382 0
-386 0
-379 0
-383 0
-376 0
-380 0
-373 0
-377 0
-370 0
-374 0
-367 0
-371 0
-364 0
-368 0
-361 0
-365 0
-358 0
-362 0
-355 0
-359 0
-352 0
-356 0
-349 0
-353 0
-346 0
-350 0
-343 0
-347 0
-340 0
-344 0
-337 0
-341 0
-334 0
-338 0
-331 0
-335 0
-328 0
-332 0
-325 0
-329 0
-322 0
-326 0
-319 0
-323 0
-316 0
-320 0
-313 0
-317 0
-310 0
-314 0
-307 0
-311 0
-304 0
-308 0
-301 0
-305 0
-298 0
-302 0
-295 0
-299 0
-292 0
-296 0
-289 0
-293 0
-286 0
-290 0
-283 0
-287 0
-280 0
-284 0
-277 0
-281 0
-274 0
-278 0
-271 0
-275 0
-268 0
-272 0
-265 0
-269 0
-262 0
-266 0
-259 0
-263 0
-256 0
-260 0
-253 0
-257 0
-250 0
-254 0
-247 0
-251 0
-244 0
-248 0
-241 0
-245 0
-238 0
-242 0
-235 0
-239 0
-232 0
-236 0
-229 0
-233 0
-226 0
-230 0
-223 0
-227 0
-220 0
-224 0
-217 0
-221 0
-214 0
-218 0
-211 0
-215 0
-208 0
-212 0
-205 0
-209 0
-202 0
-206 0
-199 0
-203 0
-196 0
-200 0
-193 0
-197 0
-190 0
-194 0
-187 0
-191 0
-184 0
-188 0
-181 0
-185 0
-178 0
-182 0
-175 0
-179 0
-169 0
-176 0
